p cnf 86 1763
-86 0
-86 -83 -66 -63 -17 0
-86 -83 -63 -60 -37 0
-86 -83 -63 -40 0
-86 -83 -63 -34 0
-86 -83 -63 -20 0
-86 -83 -63 -14 0
-86 -80 -66 -37 -14 0
-86 -80 -63 -37 -14 0
-86 -80 -60 -37 -14 0
-86 -80 -57 -37 -14 0
-86 -80 -43 -37 -14 0
-86 -80 -37 -14 -8 0
-86 -72 -66 -43 -23 0
-86 -72 -49 -43 -20 0
-86 -72 -43 0
-86 -72 -43 -37 0
-86 -72 -43 -6 0
-86 -69 -66 -46 -20 0
-86 -69 -63 -40 -20 0
-86 -69 -49 -43 -20 0
-86 -69 -20 0
-86 -66 0
-86 -66 -63 -46 -40 0
-86 -66 -63 -43 0
-86 -66 -63 -37 0
-86 -66 -63 -20 0
-86 -66 -63 -14 0
-86 -66 -60 -37 -17 0
-86 -66 -49 -43 -20 0
-86 -66 -46 -43 0
-86 -66 -46 -37 0
-86 -66 -46 -23 0
-86 -66 -46 -17 0
-86 -66 -43 -37 0
-86 -66 -43 -14 0
-86 -66 -37 -23 0
-86 -66 -23 0
-86 -66 -23 -20 0
-86 -66 -23 -17 0
-86 -66 -20 -17 0
-86 -66 -20 -14 0
-86 -66 -17 -14 0
-86 -66 -14 0
-86 -65 0
-86 -64 0
-86 -63 0
-86 -63 -57 -34 -14 0
-86 -63 -49 -43 -20 0
-86 -63 -43 0
-86 -63 -43 -40 0
-86 -63 -43 -37 0
-86 -63 -43 -14 0
-86 -63 -40 -37 0
-86 -63 -40 -34 0
-86 -63 -37 -34 0
-86 -63 -34 0
-86 -63 -34 -20 0
-86 -63 -20 -14 0
-86 -60 -37 0
-86 -57 -20 -14 0
-86 -57 -14 0
-86 -57 -14 -8 0
-86 -49 -43 -20 -14 0
-86 -49 -43 -20 -6 0
-86 -43 0
-86 -43 -37 0
-86 -43 -14 -8 0
-86 -43 -14 -6 0
-86 -43 -6 0
-86 -37 0
-86 -20 0
-86 -20 -14 0
-86 -14 0
-86 -14 -8 0
-85 0
-85 -82 -65 -62 -16 0
-85 -82 -62 -59 -36 0
-85 -82 -62 -39 0
-85 -82 -62 -33 0
-85 -82 -62 -19 0
-85 -82 -62 -13 0
-85 -79 -65 -36 -13 0
-85 -79 -62 -36 -13 0
-85 -79 -59 -36 -13 0
-85 -79 -56 -36 -13 0
-85 -79 -42 -36 -13 0
-85 -79 -36 -13 -7 0
-85 -71 -65 -42 -22 0
-85 -71 -48 -42 -19 0
-85 -71 -42 0
-85 -71 -42 -36 0
-85 -71 -42 -5 0
-85 -68 -65 -45 -19 0
-85 -68 -62 -39 -19 0
-85 -68 -48 -42 -19 0
-85 -68 -19 0
-85 -65 0
-85 -65 -62 -45 -39 0
-85 -65 -62 -42 0
-85 -65 -62 -36 0
-85 -65 -62 -19 0
-85 -65 -62 -13 0
-85 -65 -59 -36 -16 0
-85 -65 -48 -42 -19 0
-85 -65 -45 -42 0
-85 -65 -45 -36 0
-85 -65 -45 -22 0
-85 -65 -45 -16 0
-85 -65 -42 -36 0
-85 -65 -42 -13 0
-85 -65 -36 -22 0
-85 -65 -22 0
-85 -65 -22 -19 0
-85 -65 -22 -16 0
-85 -65 -19 -16 0
-85 -65 -19 -13 0
-85 -65 -16 -13 0
-85 -65 -13 0
-85 -64 0
-85 -63 0
-85 -62 0
-85 -62 -56 -33 -13 0
-85 -62 -48 -42 -19 0
-85 -62 -42 0
-85 -62 -42 -39 0
-85 -62 -42 -36 0
-85 -62 -42 -13 0
-85 -62 -39 -36 0
-85 -62 -39 -33 0
-85 -62 -36 -33 0
-85 -62 -33 0
-85 -62 -33 -19 0
-85 -62 -19 -13 0
-85 -59 -36 0
-85 -56 -19 -13 0
-85 -56 -13 0
-85 -56 -13 -7 0
-85 -48 -42 -19 -13 0
-85 -48 -42 -19 -5 0
-85 -42 0
-85 -42 -36 0
-85 -42 -13 -7 0
-85 -42 -13 -5 0
-85 -42 -5 0
-85 -36 0
-85 -19 0
-85 -19 -13 0
-85 -13 0
-85 -13 -7 0
-84 0
-84 -81 -64 -61 -15 0
-84 -81 -61 -58 -35 0
-84 -81 -61 -38 0
-84 -81 -61 -32 0
-84 -81 -61 -18 0
-84 -81 -61 -12 0
-84 -78 -64 -35 -12 0
-84 -78 -61 -35 -12 0
-84 -78 -58 -35 -12 0
-84 -78 -55 -35 -12 0
-84 -78 -41 -35 -12 0
-84 -78 -35 -12 -6 0
-84 -70 -64 -41 -21 0
-84 -70 -47 -41 -18 0
-84 -70 -41 0
-84 -70 -41 -35 0
-84 -70 -41 -4 0
-84 -67 -64 -44 -18 0
-84 -67 -61 -38 -18 0
-84 -67 -47 -41 -18 0
-84 -67 -18 0
-84 -64 0
-84 -64 -61 -44 -38 0
-84 -64 -61 -41 0
-84 -64 -61 -35 0
-84 -64 -61 -18 0
-84 -64 -61 -12 0
-84 -64 -58 -35 -15 0
-84 -64 -47 -41 -18 0
-84 -64 -44 -41 0
-84 -64 -44 -35 0
-84 -64 -44 -21 0
-84 -64 -44 -15 0
-84 -64 -41 -35 0
-84 -64 -41 -12 0
-84 -64 -35 -21 0
-84 -64 -21 0
-84 -64 -21 -18 0
-84 -64 -21 -15 0
-84 -64 -18 -15 0
-84 -64 -18 -12 0
-84 -64 -15 -12 0
-84 -64 -12 0
-84 -63 0
-84 -62 0
-84 -61 0
-84 -61 -55 -32 -12 0
-84 -61 -47 -41 -18 0
-84 -61 -41 0
-84 -61 -41 -38 0
-84 -61 -41 -35 0
-84 -61 -41 -12 0
-84 -61 -38 -35 0
-84 -61 -38 -32 0
-84 -61 -35 -32 0
-84 -61 -32 0
-84 -61 -32 -18 0
-84 -61 -18 -12 0
-84 -58 -35 0
-84 -55 -18 -12 0
-84 -55 -12 0
-84 -55 -12 -6 0
-84 -47 -41 -18 -12 0
-84 -47 -41 -18 -4 0
-84 -41 0
-84 -41 -35 0
-84 -41 -12 -6 0
-84 -41 -12 -4 0
-84 -41 -4 0
-84 -35 0
-84 -18 0
-84 -18 -12 0
-84 -12 0
-84 -12 -6 0
-83 0
-83 -80 -63 -60 -14 0
-83 -80 -60 -57 -34 0
-83 -80 -60 -37 0
-83 -80 -60 -31 0
-83 -80 -60 -17 0
-83 -80 -60 -11 0
-83 -77 -63 -34 -11 0
-83 -77 -60 -34 -11 0
-83 -77 -57 -34 -11 0
-83 -77 -54 -34 -11 0
-83 -77 -40 -34 -11 0
-83 -77 -34 -11 -5 0
-83 -69 -63 -40 -20 0
-83 -69 -46 -40 -17 0
-83 -69 -40 0
-83 -69 -40 -34 0
-83 -69 -40 -3 0
-83 -66 -60 -37 -17 0
-83 -66 -46 -40 -17 0
-83 -66 -17 0
-83 -63 0
-83 -63 -60 -40 0
-83 -63 -60 -34 0
-83 -63 -60 -17 0
-83 -63 -60 -11 0
-83 -63 -57 -34 -14 0
-83 -63 -46 -40 -17 0
-83 -63 -40 -34 0
-83 -63 -40 -11 0
-83 -63 -34 -20 0
-83 -63 -20 0
-83 -63 -20 -17 0
-83 -63 -20 -14 0
-83 -63 -17 -14 0
-83 -63 -17 -11 0
-83 -63 -14 -11 0
-83 -63 -11 0
-83 -62 0
-83 -61 0
-83 -60 0
-83 -60 -54 -31 -11 0
-83 -60 -46 -40 -17 0
-83 -60 -40 0
-83 -60 -40 -37 0
-83 -60 -40 -34 0
-83 -60 -40 -11 0
-83 -60 -37 -34 0
-83 -60 -37 -31 0
-83 -60 -34 -31 0
-83 -60 -31 0
-83 -60 -31 -17 0
-83 -60 -17 -11 0
-83 -57 -34 0
-83 -54 -17 -11 0
-83 -54 -11 0
-83 -54 -11 -5 0
-83 -46 -40 -17 -11 0
-83 -46 -40 -17 -3 0
-83 -40 0
-83 -40 -34 0
-83 -40 -11 -5 0
-83 -40 -11 -3 0
-83 -40 -3 0
-83 -34 0
-83 -17 0
-83 -17 -11 0
-83 -11 0
-83 -11 -5 0
-82 0
-82 -79 -62 -59 -13 0
-82 -79 -59 -56 -33 0
-82 -79 -59 -36 0
-82 -79 -59 -30 0
-82 -79 -59 -16 0
-82 -79 -59 -10 0
-82 -76 -62 -33 -10 0
-82 -76 -59 -33 -10 0
-82 -76 -56 -33 -10 0
-82 -76 -53 -33 -10 0
-82 -76 -39 -33 -10 0
-82 -76 -33 -10 -4 0
-82 -68 -62 -39 -19 0
-82 -68 -45 -39 -16 0
-82 -68 -39 0
-82 -68 -39 -33 0
-82 -68 -39 -2 0
-82 -65 -59 -36 -16 0
-82 -65 -45 -39 -16 0
-82 -65 -16 0
-82 -62 0
-82 -62 -59 -39 0
-82 -62 -59 -33 0
-82 -62 -59 -16 0
-82 -62 -59 -10 0
-82 -62 -56 -33 -13 0
-82 -62 -45 -39 -16 0
-82 -62 -39 -33 0
-82 -62 -39 -10 0
-82 -62 -33 -19 0
-82 -62 -19 0
-82 -62 -19 -16 0
-82 -62 -19 -13 0
-82 -62 -16 -13 0
-82 -62 -16 -10 0
-82 -62 -13 -10 0
-82 -62 -10 0
-82 -61 0
-82 -60 0
-82 -59 0
-82 -59 -53 -30 -10 0
-82 -59 -45 -39 -16 0
-82 -59 -39 0
-82 -59 -39 -36 0
-82 -59 -39 -33 0
-82 -59 -39 -10 0
-82 -59 -36 -33 0
-82 -59 -36 -30 0
-82 -59 -33 -30 0
-82 -59 -30 0
-82 -59 -30 -16 0
-82 -59 -16 -10 0
-82 -56 -33 0
-82 -53 -16 -10 0
-82 -53 -10 0
-82 -53 -10 -4 0
-82 -45 -39 -16 -10 0
-82 -45 -39 -16 -2 0
-82 -39 0
-82 -39 -33 0
-82 -39 -10 -4 0
-82 -39 -10 -2 0
-82 -39 -2 0
-82 -33 0
-82 -16 0
-82 -16 -10 0
-82 -10 0
-82 -10 -4 0
-81 0
-81 -78 -61 -58 -12 0
-81 -78 -58 -55 -32 0
-81 -78 -58 -35 0
-81 -78 -58 -29 0
-81 -78 -58 -15 0
-81 -78 -58 -9 0
-81 -75 -61 -32 -9 0
-81 -75 -58 -32 -9 0
-81 -75 -55 -32 -9 0
-81 -75 -52 -32 -9 0
-81 -75 -38 -32 -9 0
-81 -75 -32 -9 -3 0
-81 -67 -61 -38 -18 0
-81 -67 -44 -38 -15 0
-81 -67 -38 0
-81 -67 -38 -32 0
-81 -67 -38 -1 0
-81 -64 -58 -35 -15 0
-81 -64 -44 -38 -15 0
-81 -64 -15 0
-81 -61 0
-81 -61 -58 -38 0
-81 -61 -58 -32 0
-81 -61 -58 -15 0
-81 -61 -58 -9 0
-81 -61 -55 -32 -12 0
-81 -61 -44 -38 -15 0
-81 -61 -38 -32 0
-81 -61 -38 -9 0
-81 -61 -32 -18 0
-81 -61 -18 0
-81 -61 -18 -15 0
-81 -61 -18 -12 0
-81 -61 -15 -12 0
-81 -61 -15 -9 0
-81 -61 -12 -9 0
-81 -61 -9 0
-81 -60 0
-81 -59 0
-81 -58 0
-81 -58 -52 -29 -9 0
-81 -58 -44 -38 -15 0
-81 -58 -38 0
-81 -58 -38 -35 0
-81 -58 -38 -32 0
-81 -58 -38 -9 0
-81 -58 -35 -32 0
-81 -58 -35 -29 0
-81 -58 -32 -29 0
-81 -58 -29 0
-81 -58 -29 -15 0
-81 -58 -15 -9 0
-81 -55 -32 0
-81 -52 -15 -9 0
-81 -52 -9 0
-81 -52 -9 -3 0
-81 -44 -38 -15 -9 0
-81 -44 -38 -15 -1 0
-81 -38 0
-81 -38 -32 0
-81 -38 -9 -3 0
-81 -38 -9 -1 0
-81 -38 -1 0
-81 -32 0
-81 -15 0
-81 -15 -9 0
-81 -9 0
-81 -9 -3 0
-80 0
-80 -77 -60 -57 -11 0
-80 -77 -57 -54 -31 0
-80 -77 -57 -34 0
-80 -77 -57 -28 0
-80 -77 -57 -14 0
-80 -77 -57 -8 0
-80 -74 -60 -31 -8 0
-80 -74 -57 -31 -8 0
-80 -74 -54 -31 -8 0
-80 -74 -51 -31 -8 0
-80 -74 -37 -31 -8 0
-80 -74 -31 -8 -2 0
-80 -66 -60 -37 -17 0
-80 -66 -43 -37 0
-80 -66 -37 0
-80 -66 -37 -31 0
-80 -63 -57 -34 -14 0
-80 -63 -14 0
-80 -60 0
-80 -60 -57 -37 0
-80 -60 -57 -31 0
-80 -60 -57 -14 0
-80 -60 -57 -8 0
-80 -60 -54 -31 -11 0
-80 -60 -37 -31 0
-80 -60 -37 -8 0
-80 -60 -31 -17 0
-80 -60 -17 0
-80 -60 -17 -14 0
-80 -60 -17 -11 0
-80 -60 -14 -11 0
-80 -60 -14 -8 0
-80 -60 -11 -8 0
-80 -60 -8 0
-80 -59 0
-80 -58 0
-80 -57 0
-80 -57 -51 -28 -8 0
-80 -57 -37 0
-80 -57 -37 -34 0
-80 -57 -37 -31 0
-80 -57 -37 -8 0
-80 -57 -34 -31 0
-80 -57 -34 -28 0
-80 -57 -31 -28 0
-80 -57 -28 0
-80 -57 -28 -14 0
-80 -57 -14 -8 0
-80 -54 -31 0
-80 -51 -14 -8 0
-80 -51 -8 0
-80 -51 -8 -2 0
-80 -43 -37 0
-80 -43 -37 -8 0
-80 -37 0
-80 -37 -31 0
-80 -37 -8 -2 0
-80 -31 0
-80 -14 0
-80 -14 -8 0
-80 -8 0
-80 -8 -2 0
-79 0
-79 -76 -59 -56 -10 0
-79 -76 -56 -53 -30 0
-79 -76 -56 -33 0
-79 -76 -56 -27 0
-79 -76 -56 -13 0
-79 -76 -56 -7 0
-79 -73 -59 -30 -7 0
-79 -73 -56 -30 -7 0
-79 -73 -53 -30 -7 0
-79 -73 -50 -30 -7 0
-79 -73 -36 -30 -7 0
-79 -73 -30 -7 -1 0
-79 -65 -59 -36 -16 0
-79 -65 -42 -36 0
-79 -65 -36 0
-79 -65 -36 -30 0
-79 -62 -56 -33 -13 0
-79 -62 -13 0
-79 -59 0
-79 -59 -56 -36 0
-79 -59 -56 -30 0
-79 -59 -56 -13 0
-79 -59 -56 -7 0
-79 -59 -53 -30 -10 0
-79 -59 -36 -30 0
-79 -59 -36 -7 0
-79 -59 -30 -16 0
-79 -59 -16 0
-79 -59 -16 -13 0
-79 -59 -16 -10 0
-79 -59 -13 -10 0
-79 -59 -13 -7 0
-79 -59 -10 -7 0
-79 -59 -7 0
-79 -58 0
-79 -57 0
-79 -56 0
-79 -56 -50 -27 -7 0
-79 -56 -36 0
-79 -56 -36 -33 0
-79 -56 -36 -30 0
-79 -56 -36 -7 0
-79 -56 -33 -30 0
-79 -56 -33 -27 0
-79 -56 -30 -27 0
-79 -56 -27 0
-79 -56 -27 -13 0
-79 -56 -13 -7 0
-79 -53 -30 0
-79 -50 -13 -7 0
-79 -50 -7 0
-79 -50 -7 -1 0
-79 -42 -36 0
-79 -42 -36 -7 0
-79 -36 0
-79 -36 -30 0
-79 -36 -7 -1 0
-79 -30 0
-79 -13 0
-79 -13 -7 0
-79 -7 0
-79 -7 -1 0
-78 0
-78 -75 -58 -55 -9 0
-78 -75 -55 -52 -29 0
-78 -75 -55 -32 0
-78 -75 -55 -26 0
-78 -75 -55 -12 0
-78 -75 -55 -6 0
-78 -72 -58 -29 -6 0
-78 -72 -55 -29 -6 0
-78 -72 -52 -29 -6 0
-78 -72 -49 -29 -6 0
-78 -72 -43 -29 -6 0
-78 -72 -35 -29 -6 0
-78 -64 -58 -35 -15 0
-78 -64 -41 -35 0
-78 -64 -35 0
-78 -64 -35 -29 0
-78 -61 -55 -32 -12 0
-78 -61 -12 0
-78 -58 0
-78 -58 -55 -35 0
-78 -58 -55 -29 0
-78 -58 -55 -12 0
-78 -58 -55 -6 0
-78 -58 -52 -29 -9 0
-78 -58 -35 -29 0
-78 -58 -35 -6 0
-78 -58 -29 -15 0
-78 -58 -15 0
-78 -58 -15 -12 0
-78 -58 -15 -9 0
-78 -58 -12 -9 0
-78 -58 -12 -6 0
-78 -58 -9 -6 0
-78 -58 -6 0
-78 -57 0
-78 -56 0
-78 -55 0
-78 -55 -49 -26 -6 0
-78 -55 -35 0
-78 -55 -35 -32 0
-78 -55 -35 -29 0
-78 -55 -35 -6 0
-78 -55 -32 -29 0
-78 -55 -32 -26 0
-78 -55 -29 -26 0
-78 -55 -26 0
-78 -55 -26 -12 0
-78 -55 -12 -6 0
-78 -52 -29 0
-78 -49 -43 -6 0
-78 -49 -12 -6 0
-78 -49 -6 0
-78 -43 -35 -6 0
-78 -43 -6 0
-78 -41 -35 0
-78 -41 -35 -6 0
-78 -35 0
-78 -35 -29 0
-78 -29 0
-78 -12 0
-78 -12 -6 0
-78 -6 0
-77 0
-77 -74 -57 -54 -8 0
-77 -74 -54 -51 -28 0
-77 -74 -54 -31 0
-77 -74 -54 -25 0
-77 -74 -54 -11 0
-77 -74 -54 -5 0
-77 -71 -57 -28 -5 0
-77 -71 -54 -28 -5 0
-77 -71 -51 -28 -5 0
-77 -71 -48 -28 -5 0
-77 -71 -42 -28 -5 0
-77 -71 -34 -28 -5 0
-77 -63 -57 -34 -14 0
-77 -63 -40 -34 0
-77 -63 -34 0
-77 -63 -34 -28 0
-77 -60 -54 -31 -11 0
-77 -60 -11 0
-77 -57 0
-77 -57 -54 -34 0
-77 -57 -54 -28 0
-77 -57 -54 -11 0
-77 -57 -54 -5 0
-77 -57 -51 -28 -8 0
-77 -57 -34 -28 0
-77 -57 -34 -5 0
-77 -57 -28 -14 0
-77 -57 -14 0
-77 -57 -14 -11 0
-77 -57 -14 -8 0
-77 -57 -11 -8 0
-77 -57 -11 -5 0
-77 -57 -8 -5 0
-77 -57 -5 0
-77 -56 0
-77 -55 0
-77 -54 0
-77 -54 -48 -25 -5 0
-77 -54 -34 0
-77 -54 -34 -31 0
-77 -54 -34 -28 0
-77 -54 -34 -5 0
-77 -54 -31 -28 0
-77 -54 -31 -25 0
-77 -54 -28 -25 0
-77 -54 -25 0
-77 -54 -25 -11 0
-77 -54 -11 -5 0
-77 -51 -28 0
-77 -48 -42 -5 0
-77 -48 -11 -5 0
-77 -48 -5 0
-77 -42 -34 -5 0
-77 -42 -5 0
-77 -40 -34 0
-77 -40 -34 -5 0
-77 -34 0
-77 -34 -28 0
-77 -28 0
-77 -11 0
-77 -11 -5 0
-77 -5 0
-76 0
-76 -73 -56 -53 -7 0
-76 -73 -53 -50 -27 0
-76 -73 -53 -30 0
-76 -73 -53 -24 0
-76 -73 -53 -10 0
-76 -73 -53 -4 0
-76 -70 -56 -27 -4 0
-76 -70 -53 -27 -4 0
-76 -70 -50 -27 -4 0
-76 -70 -47 -27 -4 0
-76 -70 -41 -27 -4 0
-76 -70 -33 -27 -4 0
-76 -62 -56 -33 -13 0
-76 -62 -39 -33 0
-76 -62 -33 0
-76 -62 -33 -27 0
-76 -59 -53 -30 -10 0
-76 -59 -10 0
-76 -56 0
-76 -56 -53 -33 0
-76 -56 -53 -27 0
-76 -56 -53 -10 0
-76 -56 -53 -4 0
-76 -56 -50 -27 -7 0
-76 -56 -33 -27 0
-76 -56 -33 -4 0
-76 -56 -27 -13 0
-76 -56 -13 0
-76 -56 -13 -10 0
-76 -56 -13 -7 0
-76 -56 -10 -7 0
-76 -56 -10 -4 0
-76 -56 -7 -4 0
-76 -56 -4 0
-76 -55 0
-76 -54 0
-76 -53 0
-76 -53 -47 -24 -4 0
-76 -53 -33 0
-76 -53 -33 -30 0
-76 -53 -33 -27 0
-76 -53 -33 -4 0
-76 -53 -30 -27 0
-76 -53 -30 -24 0
-76 -53 -27 -24 0
-76 -53 -24 0
-76 -53 -24 -10 0
-76 -53 -10 -4 0
-76 -50 -27 0
-76 -47 -41 -4 0
-76 -47 -10 -4 0
-76 -47 -4 0
-76 -41 -33 -4 0
-76 -41 -4 0
-76 -39 -33 0
-76 -39 -33 -4 0
-76 -33 0
-76 -33 -27 0
-76 -27 0
-76 -10 0
-76 -10 -4 0
-76 -4 0
-75 0
-75 -72 -55 -52 -6 0
-75 -72 -52 -49 -26 0
-75 -72 -52 -29 0
-75 -72 -52 -23 0
-75 -72 -52 -9 0
-75 -72 -52 -3 0
-75 -69 -55 -26 -3 0
-75 -69 -52 -26 -3 0
-75 -69 -49 -26 -3 0
-75 -69 -46 -26 -3 0
-75 -69 -40 -26 -3 0
-75 -69 -32 -26 -3 0
-75 -61 -55 -32 -12 0
-75 -61 -38 -32 0
-75 -61 -32 0
-75 -61 -32 -26 0
-75 -58 -52 -29 -9 0
-75 -58 -9 0
-75 -55 0
-75 -55 -52 -32 0
-75 -55 -52 -26 0
-75 -55 -52 -9 0
-75 -55 -52 -3 0
-75 -55 -49 -26 -6 0
-75 -55 -32 -26 0
-75 -55 -32 -3 0
-75 -55 -26 -12 0
-75 -55 -12 0
-75 -55 -12 -9 0
-75 -55 -12 -6 0
-75 -55 -9 -6 0
-75 -55 -9 -3 0
-75 -55 -6 -3 0
-75 -55 -3 0
-75 -54 0
-75 -53 0
-75 -52 0
-75 -52 -46 -23 -3 0
-75 -52 -32 0
-75 -52 -32 -29 0
-75 -52 -32 -26 0
-75 -52 -32 -3 0
-75 -52 -29 -26 0
-75 -52 -29 -23 0
-75 -52 -26 -23 0
-75 -52 -23 0
-75 -52 -23 -9 0
-75 -52 -9 -3 0
-75 -49 -26 0
-75 -46 -40 -3 0
-75 -46 -9 -3 0
-75 -46 -3 0
-75 -40 -32 -3 0
-75 -40 -3 0
-75 -38 -32 0
-75 -38 -32 -3 0
-75 -32 0
-75 -32 -26 0
-75 -26 0
-75 -9 0
-75 -9 -3 0
-75 -3 0
-74 0
-74 -71 -54 -51 -5 0
-74 -71 -51 -48 -25 0
-74 -71 -51 -28 0
-74 -71 -51 -22 0
-74 -71 -51 -8 0
-74 -71 -51 -2 0
-74 -68 -54 -25 -2 0
-74 -68 -51 -25 -2 0
-74 -68 -48 -25 -2 0
-74 -68 -45 -25 -2 0
-74 -68 -39 -25 -2 0
-74 -68 -31 -25 -2 0
-74 -60 -54 -31 -11 0
-74 -60 -37 -31 0
-74 -60 -31 0
-74 -60 -31 -25 0
-74 -57 -51 -28 -8 0
-74 -57 -8 0
-74 -54 0
-74 -54 -51 -31 0
-74 -54 -51 -25 0
-74 -54 -51 -8 0
-74 -54 -51 -2 0
-74 -54 -48 -25 -5 0
-74 -54 -31 -25 0
-74 -54 -31 -2 0
-74 -54 -25 -11 0
-74 -54 -11 0
-74 -54 -11 -8 0
-74 -54 -11 -5 0
-74 -54 -8 -5 0
-74 -54 -8 -2 0
-74 -54 -5 -2 0
-74 -54 -2 0
-74 -53 0
-74 -52 0
-74 -51 0
-74 -51 -45 -22 -2 0
-74 -51 -31 0
-74 -51 -31 -28 0
-74 -51 -31 -25 0
-74 -51 -31 -2 0
-74 -51 -28 -25 0
-74 -51 -28 -22 0
-74 -51 -25 -22 0
-74 -51 -22 0
-74 -51 -22 -8 0
-74 -51 -8 -2 0
-74 -48 -25 0
-74 -45 -39 -2 0
-74 -45 -8 -2 0
-74 -45 -2 0
-74 -39 -31 -2 0
-74 -39 -2 0
-74 -37 -31 0
-74 -37 -31 -2 0
-74 -31 0
-74 -31 -25 0
-74 -25 0
-74 -8 0
-74 -8 -2 0
-74 -2 0
-73 0
-73 -70 -53 -50 -4 0
-73 -70 -50 -47 -24 0
-73 -70 -50 -27 0
-73 -70 -50 -21 0
-73 -70 -50 -7 0
-73 -70 -50 -1 0
-73 -67 -53 -24 -1 0
-73 -67 -50 -24 -1 0
-73 -67 -47 -24 -1 0
-73 -67 -44 -24 -1 0
-73 -67 -38 -24 -1 0
-73 -67 -30 -24 -1 0
-73 -59 -53 -30 -10 0
-73 -59 -36 -30 0
-73 -59 -30 0
-73 -59 -30 -24 0
-73 -56 -50 -27 -7 0
-73 -56 -7 0
-73 -53 0
-73 -53 -50 -30 0
-73 -53 -50 -24 0
-73 -53 -50 -7 0
-73 -53 -50 -1 0
-73 -53 -47 -24 -4 0
-73 -53 -30 -24 0
-73 -53 -30 -1 0
-73 -53 -24 -10 0
-73 -53 -10 0
-73 -53 -10 -7 0
-73 -53 -10 -4 0
-73 -53 -7 -4 0
-73 -53 -7 -1 0
-73 -53 -4 -1 0
-73 -53 -1 0
-73 -52 0
-73 -51 0
-73 -50 0
-73 -50 -44 -21 -1 0
-73 -50 -30 0
-73 -50 -30 -27 0
-73 -50 -30 -24 0
-73 -50 -30 -1 0
-73 -50 -27 -24 0
-73 -50 -27 -21 0
-73 -50 -24 -21 0
-73 -50 -21 0
-73 -50 -21 -7 0
-73 -50 -7 -1 0
-73 -47 -24 0
-73 -44 -38 -1 0
-73 -44 -7 -1 0
-73 -44 -1 0
-73 -38 -30 -1 0
-73 -38 -1 0
-73 -36 -30 0
-73 -36 -30 -1 0
-73 -30 0
-73 -30 -24 0
-73 -24 0
-73 -7 0
-73 -7 -1 0
-73 -1 0
-72 0
-72 -69 -52 -49 -3 0
-72 -69 -49 -46 -23 0
-72 -69 -49 -43 0
-72 -69 -49 -26 0
-72 -69 -49 -20 0
-72 -69 -49 -6 0
-72 -66 -52 -43 -23 0
-72 -66 -49 -43 -23 0
-72 -66 -46 -43 -23 0
-72 -66 -43 -37 -23 0
-72 -66 -43 -29 -23 0
-72 -58 -52 -29 -9 0
-72 -58 -35 -29 0
-72 -58 -29 0
-72 -58 -29 -23 0
-72 -55 -49 -26 -6 0
-72 -55 -6 0
-72 -52 0
-72 -52 -49 -43 0
-72 -52 -49 -29 0
-72 -52 -49 -23 0
-72 -52 -49 -6 0
-72 -52 -46 -23 -3 0
-72 -52 -43 0
-72 -52 -43 -29 0
-72 -52 -43 -6 0
-72 -52 -43 -3 0
-72 -52 -29 -23 0
-72 -52 -23 -9 0
-72 -52 -9 0
-72 -52 -9 -6 0
-72 -52 -9 -3 0
-72 -52 -6 -3 0
-72 -51 0
-72 -50 0
-72 -49 0
-72 -49 -43 -29 0
-72 -49 -43 -6 0
-72 -49 -29 0
-72 -49 -29 -26 0
-72 -49 -29 -23 0
-72 -49 -26 -23 0
-72 -49 -26 -20 0
-72 -49 -23 -20 0
-72 -49 -20 0
-72 -49 -20 -6 0
-72 -46 -23 0
-72 -43 0
-72 -43 -37 0
-72 -43 -37 -29 0
-72 -43 -35 -29 0
-72 -43 -6 0
-72 -35 -29 0
-72 -29 0
-72 -29 -23 0
-72 -23 0
-72 -6 0
-71 0
-71 -68 -51 -48 -2 0
-71 -68 -48 -45 -22 0
-71 -68 -48 -42 0
-71 -68 -48 -25 0
-71 -68 -48 -19 0
-71 -68 -48 -5 0
-71 -65 -51 -42 -22 0
-71 -65 -48 -42 -22 0
-71 -65 -45 -42 -22 0
-71 -65 -42 -36 -22 0
-71 -65 -42 -28 -22 0
-71 -57 -51 -28 -8 0
-71 -57 -34 -28 0
-71 -57 -28 0
-71 -57 -28 -22 0
-71 -54 -48 -25 -5 0
-71 -54 -5 0
-71 -51 0
-71 -51 -48 -42 0
-71 -51 -48 -28 0
-71 -51 -48 -22 0
-71 -51 -48 -5 0
-71 -51 -45 -22 -2 0
-71 -51 -42 0
-71 -51 -42 -28 0
-71 -51 -42 -5 0
-71 -51 -42 -2 0
-71 -51 -28 -22 0
-71 -51 -22 -8 0
-71 -51 -8 0
-71 -51 -8 -5 0
-71 -51 -8 -2 0
-71 -51 -5 -2 0
-71 -50 0
-71 -49 0
-71 -48 0
-71 -48 -42 -28 0
-71 -48 -42 -5 0
-71 -48 -28 0
-71 -48 -28 -25 0
-71 -48 -28 -22 0
-71 -48 -25 -22 0
-71 -48 -25 -19 0
-71 -48 -22 -19 0
-71 -48 -19 0
-71 -48 -19 -5 0
-71 -45 -22 0
-71 -42 0
-71 -42 -36 0
-71 -42 -36 -28 0
-71 -42 -34 -28 0
-71 -42 -5 0
-71 -34 -28 0
-71 -28 0
-71 -28 -22 0
-71 -22 0
-71 -5 0
-70 0
-70 -67 -50 -47 -1 0
-70 -67 -47 -44 -21 0
-70 -67 -47 -41 0
-70 -67 -47 -24 0
-70 -67 -47 -18 0
-70 -67 -47 -4 0
-70 -64 -50 -41 -21 0
-70 -64 -47 -41 -21 0
-70 -64 -44 -41 -21 0
-70 -64 -41 -35 -21 0
-70 -64 -41 -27 -21 0
-70 -56 -50 -27 -7 0
-70 -56 -33 -27 0
-70 -56 -27 0
-70 -56 -27 -21 0
-70 -53 -47 -24 -4 0
-70 -53 -4 0
-70 -50 0
-70 -50 -47 -41 0
-70 -50 -47 -27 0
-70 -50 -47 -21 0
-70 -50 -47 -4 0
-70 -50 -44 -21 -1 0
-70 -50 -41 0
-70 -50 -41 -27 0
-70 -50 -41 -4 0
-70 -50 -41 -1 0
-70 -50 -27 -21 0
-70 -50 -21 -7 0
-70 -50 -7 0
-70 -50 -7 -4 0
-70 -50 -7 -1 0
-70 -50 -4 -1 0
-70 -49 0
-70 -48 0
-70 -47 0
-70 -47 -41 -27 0
-70 -47 -41 -4 0
-70 -47 -27 0
-70 -47 -27 -24 0
-70 -47 -27 -21 0
-70 -47 -24 -21 0
-70 -47 -24 -18 0
-70 -47 -21 -18 0
-70 -47 -18 0
-70 -47 -18 -4 0
-70 -44 -21 0
-70 -41 0
-70 -41 -35 0
-70 -41 -35 -27 0
-70 -41 -33 -27 0
-70 -41 -4 0
-70 -33 -27 0
-70 -27 0
-70 -27 -21 0
-70 -21 0
-70 -4 0
-69 0
-69 -66 -49 -46 -43 0
-69 -66 -46 -40 0
-69 -66 -46 -23 0
-69 -66 -46 -17 0
-69 -66 -46 -3 0
-69 -63 -49 -40 -20 0
-69 -63 -46 -40 -20 0
-69 -63 -40 -34 -20 0
-69 -63 -40 -26 -20 0
-69 -55 -49 -26 -6 0
-69 -55 -32 -26 0
-69 -55 -26 0
-69 -55 -26 -20 0
-69 -52 -46 -23 -3 0
-69 -52 -3 0
-69 -49 0
-69 -49 -46 -40 0
-69 -49 -46 -26 0
-69 -49 -46 -20 0
-69 -49 -46 -3 0
-69 -49 -43 -40 0
-69 -49 -43 -6 0
-69 -49 -43 -3 0
-69 -49 -40 0
-69 -49 -40 -26 0
-69 -49 -40 -3 0
-69 -49 -26 -20 0
-69 -49 -20 -6 0
-69 -49 -6 0
-69 -49 -6 -3 0
-69 -48 0
-69 -47 0
-69 -46 0
-69 -46 -40 -26 0
-69 -46 -40 -3 0
-69 -46 -26 0
-69 -46 -26 -23 0
-69 -46 -26 -20 0
-69 -46 -23 -20 0
-69 -46 -23 -17 0
-69 -46 -20 -17 0
-69 -46 -17 0
-69 -46 -17 -3 0
-69 -40 0
-69 -40 -34 0
-69 -40 -34 -26 0
-69 -40 -32 -26 0
-69 -40 -3 0
-69 -32 -26 0
-69 -26 0
-69 -26 -20 0
-69 -20 0
-69 -3 0
-68 0
-68 -65 -48 -45 -42 0
-68 -65 -45 -39 0
-68 -65 -45 -22 0
-68 -65 -45 -16 0
-68 -65 -45 -2 0
-68 -62 -48 -39 -19 0
-68 -62 -45 -39 -19 0
-68 -62 -39 -33 -19 0
-68 -62 -39 -25 -19 0
-68 -54 -48 -25 -5 0
-68 -54 -31 -25 0
-68 -54 -25 0
-68 -54 -25 -19 0
-68 -51 -45 -22 -2 0
-68 -51 -2 0
-68 -48 0
-68 -48 -45 -39 0
-68 -48 -45 -25 0
-68 -48 -45 -19 0
-68 -48 -45 -2 0
-68 -48 -42 -39 0
-68 -48 -42 -5 0
-68 -48 -42 -2 0
-68 -48 -39 0
-68 -48 -39 -25 0
-68 -48 -39 -2 0
-68 -48 -25 -19 0
-68 -48 -19 -5 0
-68 -48 -5 0
-68 -48 -5 -2 0
-68 -47 0
-68 -46 0
-68 -45 0
-68 -45 -39 -25 0
-68 -45 -39 -2 0
-68 -45 -25 0
-68 -45 -25 -22 0
-68 -45 -25 -19 0
-68 -45 -22 -19 0
-68 -45 -22 -16 0
-68 -45 -19 -16 0
-68 -45 -16 0
-68 -45 -16 -2 0
-68 -39 0
-68 -39 -33 0
-68 -39 -33 -25 0
-68 -39 -31 -25 0
-68 -39 -2 0
-68 -31 -25 0
-68 -25 0
-68 -25 -19 0
-68 -19 0
-68 -2 0
-67 0
-67 -64 -47 -44 -41 0
-67 -64 -44 -38 0
-67 -64 -44 -21 0
-67 -64 -44 -15 0
-67 -64 -44 -1 0
-67 -61 -47 -38 -18 0
-67 -61 -44 -38 -18 0
-67 -61 -38 -32 -18 0
-67 -61 -38 -24 -18 0
-67 -53 -47 -24 -4 0
-67 -53 -30 -24 0
-67 -53 -24 0
-67 -53 -24 -18 0
-67 -50 -44 -21 -1 0
-67 -50 -1 0
-67 -47 0
-67 -47 -44 -38 0
-67 -47 -44 -24 0
-67 -47 -44 -18 0
-67 -47 -44 -1 0
-67 -47 -41 -38 0
-67 -47 -41 -4 0
-67 -47 -41 -1 0
-67 -47 -38 0
-67 -47 -38 -24 0
-67 -47 -38 -1 0
-67 -47 -24 -18 0
-67 -47 -18 -4 0
-67 -47 -4 0
-67 -47 -4 -1 0
-67 -46 0
-67 -45 0
-67 -44 0
-67 -44 -38 -24 0
-67 -44 -38 -1 0
-67 -44 -24 0
-67 -44 -24 -21 0
-67 -44 -24 -18 0
-67 -44 -21 -18 0
-67 -44 -21 -15 0
-67 -44 -18 -15 0
-67 -44 -15 0
-67 -44 -15 -1 0
-67 -38 0
-67 -38 -32 0
-67 -38 -32 -24 0
-67 -38 -30 -24 0
-67 -38 -1 0
-67 -30 -24 0
-67 -24 0
-67 -24 -18 0
-67 -18 0
-67 -1 0
-66 0
-66 -60 -46 -37 -17 0
-66 -60 -37 -31 -17 0
-66 -60 -37 -23 -17 0
-66 -52 -46 -23 -3 0
-66 -52 -29 -23 0
-66 -52 -23 0
-66 -52 -23 -17 0
-66 -49 -43 0
-66 -46 0
-66 -46 -43 -40 0
-66 -46 -43 -37 0
-66 -46 -43 -3 0
-66 -46 -40 -37 0
-66 -46 -40 -3 0
-66 -46 -37 0
-66 -46 -37 -23 0
-66 -46 -23 -17 0
-66 -46 -17 -3 0
-66 -46 -3 0
-66 -45 0
-66 -44 0
-66 -43 0
-66 -43 -37 0
-66 -37 0
-66 -37 -31 0
-66 -37 -31 -23 0
-66 -37 -29 -23 0
-66 -29 -23 0
-66 -23 0
-66 -23 -17 0
-66 -17 0
-65 0
-65 -59 -45 -36 -16 0
-65 -59 -36 -30 -16 0
-65 -59 -36 -22 -16 0
-65 -51 -45 -22 -2 0
-65 -51 -28 -22 0
-65 -51 -22 0
-65 -51 -22 -16 0
-65 -48 -42 0
-65 -45 0
-65 -45 -42 -39 0
-65 -45 -42 -36 0
-65 -45 -42 -2 0
-65 -45 -39 -36 0
-65 -45 -39 -2 0
-65 -45 -36 0
-65 -45 -36 -22 0
-65 -45 -22 -16 0
-65 -45 -16 -2 0
-65 -45 -2 0
-65 -44 0
-65 -42 0
-65 -42 -36 0
-65 -36 0
-65 -36 -30 0
-65 -36 -30 -22 0
-65 -36 -28 -22 0
-65 -28 -22 0
-65 -22 0
-65 -22 -16 0
-65 -16 0
-64 0
-64 -58 -44 -35 -15 0
-64 -58 -35 -29 -15 0
-64 -58 -35 -21 -15 0
-64 -50 -44 -21 -1 0
-64 -50 -27 -21 0
-64 -50 -21 0
-64 -50 -21 -15 0
-64 -47 -41 0
-64 -44 0
-64 -44 -41 -38 0
-64 -44 -41 -35 0
-64 -44 -41 -1 0
-64 -44 -38 -35 0
-64 -44 -38 -1 0
-64 -44 -35 0
-64 -44 -35 -21 0
-64 -44 -21 -15 0
-64 -44 -15 -1 0
-64 -44 -1 0
-64 -41 0
-64 -41 -35 0
-64 -35 0
-64 -35 -29 0
-64 -35 -29 -21 0
-64 -35 -27 -21 0
-64 -27 -21 0
-64 -21 0
-64 -21 -15 0
-64 -15 0
-63 0
-63 -57 -34 -28 -14 0
-63 -57 -34 -20 -14 0
-63 -49 -26 -20 0
-63 -49 -20 0
-63 -49 -20 -14 0
-63 -46 -40 0
-63 -40 0
-63 -40 -34 0
-63 -34 0
-63 -34 -28 0
-63 -34 -28 -20 0
-63 -34 -26 -20 0
-63 -26 -20 0
-63 -20 0
-63 -20 -14 0
-63 -14 0
-62 0
-62 -56 -33 -27 -13 0
-62 -56 -33 -19 -13 0
-62 -48 -25 -19 0
-62 -48 -19 0
-62 -48 -19 -13 0
-62 -45 -39 0
-62 -39 0
-62 -39 -33 0
-62 -33 0
-62 -33 -27 0
-62 -33 -27 -19 0
-62 -33 -25 -19 0
-62 -25 -19 0
-62 -19 0
-62 -19 -13 0
-62 -13 0
-61 0
-61 -55 -32 -26 -12 0
-61 -55 -32 -18 -12 0
-61 -47 -24 -18 0
-61 -47 -18 0
-61 -47 -18 -12 0
-61 -44 -38 0
-61 -38 0
-61 -38 -32 0
-61 -32 0
-61 -32 -26 0
-61 -32 -26 -18 0
-61 -32 -24 -18 0
-61 -24 -18 0
-61 -18 0
-61 -18 -12 0
-61 -12 0
-60 0
-60 -54 -31 -25 -11 0
-60 -54 -31 -17 -11 0
-60 -46 -23 -17 0
-60 -46 -17 0
-60 -46 -17 -11 0
-60 -37 0
-60 -37 -31 0
-60 -31 0
-60 -31 -25 0
-60 -31 -25 -17 0
-60 -31 -23 -17 0
-60 -23 -17 0
-60 -17 0
-60 -17 -11 0
-60 -11 0
-59 0
-59 -53 -30 -24 -10 0
-59 -53 -30 -16 -10 0
-59 -45 -22 -16 0
-59 -45 -16 0
-59 -45 -16 -10 0
-59 -36 0
-59 -36 -30 0
-59 -30 0
-59 -30 -24 0
-59 -30 -24 -16 0
-59 -30 -22 -16 0
-59 -22 -16 0
-59 -16 0
-59 -16 -10 0
-59 -10 0
-58 0
-58 -52 -29 -23 -9 0
-58 -52 -29 -15 -9 0
-58 -44 -21 -15 0
-58 -44 -15 0
-58 -44 -15 -9 0
-58 -35 0
-58 -35 -29 0
-58 -29 0
-58 -29 -23 0
-58 -29 -23 -15 0
-58 -29 -21 -15 0
-58 -21 -15 0
-58 -15 0
-58 -15 -9 0
-58 -9 0
-57 0
-57 -51 -28 -22 -8 0
-57 -51 -28 -14 -8 0
-57 -34 0
-57 -34 -28 0
-57 -28 0
-57 -28 -22 0
-57 -28 -22 -14 0
-57 -28 -20 -14 0
-57 -20 -14 0
-57 -14 0
-57 -14 -8 0
-57 -8 0
-56 0
-56 -50 -27 -21 -7 0
-56 -50 -27 -13 -7 0
-56 -33 0
-56 -33 -27 0
-56 -27 0
-56 -27 -21 0
-56 -27 -21 -13 0
-56 -27 -19 -13 0
-56 -19 -13 0
-56 -13 0
-56 -13 -7 0
-56 -7 0
-55 0
-55 -49 -26 -20 -6 0
-55 -49 -26 -12 -6 0
-55 -32 0
-55 -32 -26 0
-55 -26 0
-55 -26 -20 0
-55 -26 -20 -12 0
-55 -26 -18 -12 0
-55 -18 -12 0
-55 -12 0
-55 -12 -6 0
-55 -6 0
-54 0
-54 -48 -25 -19 -5 0
-54 -48 -25 -11 -5 0
-54 -31 0
-54 -31 -25 0
-54 -25 0
-54 -25 -19 0
-54 -25 -19 -11 0
-54 -25 -17 -11 0
-54 -17 -11 0
-54 -11 0
-54 -11 -5 0
-54 -5 0
-53 0
-53 -47 -24 -18 -4 0
-53 -47 -24 -10 -4 0
-53 -30 0
-53 -30 -24 0
-53 -24 0
-53 -24 -18 0
-53 -24 -18 -10 0
-53 -24 -16 -10 0
-53 -16 -10 0
-53 -10 0
-53 -10 -4 0
-53 -4 0
-52 0
-52 -46 -23 -17 -3 0
-52 -46 -23 -9 -3 0
-52 -29 0
-52 -29 -23 0
-52 -23 0
-52 -23 -17 0
-52 -23 -17 -9 0
-52 -23 -15 -9 0
-52 -15 -9 0
-52 -9 0
-52 -9 -3 0
-52 -3 0
-51 0
-51 -45 -22 -16 -2 0
-51 -45 -22 -8 -2 0
-51 -28 0
-51 -28 -22 0
-51 -22 0
-51 -22 -16 0
-51 -22 -16 -8 0
-51 -22 -14 -8 0
-51 -14 -8 0
-51 -8 0
-51 -8 -2 0
-51 -2 0
-50 0
-50 -44 -21 -15 -1 0
-50 -44 -21 -7 -1 0
-50 -27 0
-50 -27 -21 0
-50 -21 0
-50 -21 -15 0
-50 -21 -15 -7 0
-50 -21 -13 -7 0
-50 -13 -7 0
-50 -7 0
-50 -7 -1 0
-50 -1 0
-49 0
-49 -43 0
-49 -43 -6 0
-49 -26 0
-49 -26 -20 0
-49 -20 0
-49 -20 -14 0
-49 -20 -14 -6 0
-49 -20 -12 -6 0
-49 -12 -6 0
-49 -6 0
-48 0
-48 -42 0
-48 -42 -5 0
-48 -25 0
-48 -25 -19 0
-48 -19 0
-48 -19 -13 0
-48 -19 -13 -5 0
-48 -19 -11 -5 0
-48 -11 -5 0
-48 -5 0
-47 0
-47 -41 0
-47 -41 -4 0
-47 -24 0
-47 -24 -18 0
-47 -18 0
-47 -18 -12 0
-47 -18 -12 -4 0
-47 -18 -10 -4 0
-47 -10 -4 0
-47 -4 0
-46 0
-46 -40 0
-46 -40 -3 0
-46 -23 0
-46 -23 -17 0
-46 -17 0
-46 -17 -11 0
-46 -17 -11 -3 0
-46 -17 -9 -3 0
-46 -9 -3 0
-46 -3 0
-45 0
-45 -39 0
-45 -39 -2 0
-45 -22 0
-45 -22 -16 0
-45 -16 0
-45 -16 -10 0
-45 -16 -10 -2 0
-45 -16 -8 -2 0
-45 -8 -2 0
-45 -2 0
-44 0
-44 -38 0
-44 -38 -1 0
-44 -21 0
-44 -21 -15 0
-44 -15 0
-44 -15 -9 0
-44 -15 -9 -1 0
-44 -15 -7 -1 0
-44 -7 -1 0
-44 -1 0
-43 -40 -37 0
-43 -40 -3 0
-43 -6 -3 0
-42 -39 -36 0
-42 -39 -2 0
-42 -5 -2 0
-41 -38 -35 0
-41 -38 -1 0
-41 -4 -1 0
-40 -37 -34 0
-39 -36 -33 0
-38 -35 -32 0
-37 -34 -31 0
-36 -33 -30 0
-35 -32 -29 0
-34 -31 -28 0
-33 -30 -27 0
-32 -29 -26 0
-31 -28 -25 0
-30 -27 -24 0
-29 -26 -23 0
-28 -25 -22 0
-27 -24 -21 0
-26 -23 -20 0
-25 -22 -19 0
-24 -21 -18 0
-23 -20 -17 0
-22 -19 -16 0
-21 -18 -15 0
-20 -17 -14 0
-19 -16 -13 0
-18 -15 -12 0
-17 -14 -11 0
-16 -13 -10 0
-15 -12 -9 0
-14 -11 -8 0
-13 -10 -7 0
-12 -9 -6 0
-11 -8 -5 0
-10 -7 -4 0
-9 -6 -3 0
-8 -5 -2 0
-7 -4 -1 0
1 14 0
1 20 0
1 25 0
1 31 0
2 15 0
2 21 0
2 26 0
2 32 0
3 16 0
3 22 0
3 27 0
3 33 0
4 17 0
4 23 0
4 28 0
4 34 0
5 18 0
5 24 0
5 29 0
5 35 0
6 19 0
6 25 0
6 30 0
6 36 0
7 20 0
7 26 0
7 31 0
7 37 0
8 21 0
8 27 0
8 32 0
8 38 0
9 22 0
9 28 0
9 33 0
9 39 0
10 23 0
10 29 0
10 34 0
10 40 0
11 24 0
11 30 0
11 35 0
11 41 0
12 25 0
12 31 0
12 36 0
12 42 0
13 26 0
13 32 0
13 37 0
13 43 0
14 27 0
14 33 0
14 38 0
15 28 0
15 34 0
15 39 0
16 29 0
16 35 0
16 40 0
17 30 0
17 36 0
17 41 0
18 31 0
18 37 0
18 42 0
19 32 0
19 38 0
19 43 0
20 33 0
20 39 0
21 34 0
21 40 0
22 35 0
22 41 0
23 36 0
23 42 0
24 37 0
24 43 0
25 38 0
26 39 0
27 40 0
28 41 0
29 42 0
30 43 0
